4 8 3
5 3 1 85 2 125 3 160 2 4 90 5 100 3 1 110 6 90 8 55 3 3 70 5 115 7 100 3 4 55 6 180 8 1150
4 3 1 115 3 95 4 70 2 2 70 7 115 3 4 130 6 75 8 70 3 1 150 3 115 5 160
5 2 1 95 3 105 2 2 175 5 100 3 1 135 6 140 8 100 2 2 165 4 115 2 3 100 7 115
5 3 4 105 6 100 8 95 2 2 95 7 85 2 3 145 4 140 2 1 165 6 130 2 4 150 8 130